CMPL model generation - running

CMPL version: 1.11.0
Authors: Thomas Schleiff, Mike Steglich
Distributed under the GPLv3 

create model instance ...
write model instance ...
CMPL model generation - finished

Solver - running


Welcome to IBM(R) ILOG(R) CPLEX(R) Interactive Optimizer 12.7.1.0
  with Simplex, Mixed Integer & Barrier Optimizers
5725-A06 5725-A29 5724-Y48 5724-Y49 5724-Y54 5724-Y55 5655-Y21
Copyright IBM Corp. 1988, 2017.  All Rights Reserved.

Type 'help' for a list of available commands.
Type 'help' followed by a command name for more
information on commands.

CPLEX> Specified objective sense: MINIMIZE
Selected objective  name:  line[1]
Selected RHS        name:  RHS
Selected bound      name:  BOUND
Problem '/tmp/cmpl.T27386.mps' read.
Read time = 0.10 sec. (16.18 ticks)
CPLEX> New value for mixed integer optimality gap tolerance: 0.007
CPLEX> CPLEX> CPXPARAM_Read_APIEncoding                        "UTF-8"
CPXPARAM_MIP_Tolerances_MIPGap                   0.0070000000000000001
Tried aggregator 3 times.
MIP Presolve eliminated 65030 rows and 42606 columns.
MIP Presolve modified 6736 coefficients.
Aggregator did 1423 substitutions.
Reduced MIP has 5712 rows, 4164 columns, and 17603 nonzeros.
Reduced MIP has 2828 binaries, 0 generals, 0 SOSs, and 0 indicators.
Presolve time = 0.09 sec. (84.18 ticks)
Found incumbent of value 3830.666749 after 0.12 sec. (98.85 ticks)
Probing fixed 0 vars, tightened 362 bounds.
Probing time = 0.03 sec. (12.64 ticks)
Tried aggregator 1 time.
MIP Presolve modified 946 coefficients.
Reduced MIP has 5712 rows, 4164 columns, and 17603 nonzeros.
Reduced MIP has 2996 binaries, 0 generals, 0 SOSs, and 0 indicators.
Presolve time = 0.02 sec. (13.47 ticks)
Probing time = 0.01 sec. (2.76 ticks)
Clique table members: 2378.
MIP emphasis: balance optimality and feasibility.
MIP search method: dynamic search.
Parallel mode: none, using 1 thread.
Root relaxation solution time = 0.18 sec. (136.44 ticks)

        Nodes                                         Cuts/
   Node  Left     Objective  IInf  Best Integer    Best Bound    ItCnt     Gap

*     0+    0                         3830.6667     -359.5454           109.39%
      0     0     1754.7199   371     3830.6667     1754.7199     4356   54.19%
*     0+    0                         1782.7272     1754.7199             1.57%
      0     0     1756.3260   380     1782.7272     Cuts: 293     5170    1.48%
*     0+    0                         1779.7709     1756.3260             1.32%
      0     0     1757.5901   344     1779.7709     Cuts: 348     5894    1.25%
*     0+    0                         1779.7152     1757.5901             1.24%
      0     0     1758.2925   344     1779.7152     Cuts: 346     6916    1.20%
*     0+    0                         1775.7874     1758.2925             0.99%
*     0+    0                         1775.7442     1758.2925             0.98%
*     0+    0                         1775.6593     1758.2925             0.98%
      0     0     1758.8199   350     1775.6593     Cuts: 319     7618    0.95%
      0     0     1759.4777   343     1775.6593     Cuts: 332     8294    0.91%
      0     0     1759.8879   354     1775.6593     Cuts: 260     8819    0.89%
*     0+    0                         1775.6235     1759.8879             0.89%
      0     0     1760.2693   349     1775.6235     Cuts: 270     9213    0.86%
      0     0     1760.5893   345     1775.6235     Cuts: 223     9529    0.85%
      0     0     1760.8332   341     1775.6235     Cuts: 194     9808    0.83%
      0     0     1761.0005   351     1775.6235     Cuts: 171    10052    0.82%
      0     0     1761.1786   354     1775.6235     Cuts: 140    10276    0.81%
*     0+    0                         1771.2740     1761.1786             0.57%

Flow cuts applied:  449
Mixed integer rounding cuts applied:  642
Gomory fractional cuts applied:  2

Root node processing (before b&c):
  Real time             =    2.50 sec. (1947.58 ticks)
Sequential b&c:
  Real time             =    0.00 sec. (0.00 ticks)
                          ------------
Total (root+branch&cut) =    2.50 sec. (1947.58 ticks)

Solution pool: 9 solutions saved.

MIP - Integer optimal, tolerance (0.007/1e-06):  Objective =  1.7712740160e+03
Current MIP best bound =  1.7611786071e+03 (gap = 10.0954, 0.57%)
Solution time =    2.50 sec.  Iterations = 10276  Nodes = 0 (1)
Deterministic time = 1947.72 ticks  (780.61 ticks/sec)

CPLEX> Incumbent solution written to file '/tmp/cmpl.T27386.gsol'.
CPLEX> 
CMPL: Time used for model generation: 11 seconds
CMPL: Time used for solving the model: 4 seconds


Solution written to ASCII file: /media/sf_ltf/results/output_generated/2017-03-06-4/fair-nonlinear.sol

Solver - finished
